
  22   10
  10   10   10   10   10   10   10   10   10   10

   0   0   0   0   0   0   0   0   0   0   0  16 2 3 4 5 6 7 8 9 10 11 12 13 14 19 20 21 
   8  10  10  10  10  10  10  10  10  10  10   3 17 16 15 
   4  10  10  10  10  10  10  10  10  10  10   3 17 16 15 
   4  10  10  10  10  10  10  10  10  10  10   3 17 16 15 
   3  10  10  10  10  10  10  10  10  10  10   2 18 15 
   8  10  10  10  10  10  10  10  10  10  10   2 18 16 
   5  10  10  10  10  10  10  10  10  10  10   2 17 16 
   4  10  10  10  10  10  10  10  10  10  10   2 18 16 
   9  10  10  10  10  10  10  10  10  10  10   2 18 15 
   9  10  10  10  10  10  10  10  10  10  10   2 17 15 
   1  10  10  10  10  10  10  10  10  10  10   2 17 15 
   2  10  10  10  10  10  10  10  10  10  10   2 17 15 
   7  10  10  10  10  10  10  10  10  10  10   1 16 
  10  10  10  10  10  10  10  10  10  10  10   1 15 
   6  10  10  10  10  10  10  10  10  10  10   1 22
   7  10  10  10  10  10  10  10  10  10  10   1 22
   7  10  10  10  10  10  10  10  10  10  10   1 22
   5  10  10  10  10  10  10  10  10  10  10   1 22
   9  10  10  10  10  10  10  10  10  10  10   1 22
   7  10  10  10  10  10  10  10  10  10  10   1 22
  10  10  10  10  10  10  10  10  10  10  10   1 22
   0   0   0   0   0   0   0   0   0   0   0   0 
